(set-option :produce-models true)
(set-logic QF_UF)
(declare-fun p32() Bool)
(declare-fun p48() Bool)
(declare-fun p41() Bool)
(declare-fun p15() Bool)
(declare-fun p45() Bool)
(declare-fun p26() Bool)
(declare-fun p38() Bool)
(declare-fun p31() Bool)
(declare-fun p1() Bool)
(declare-fun p7() Bool)
(declare-fun p28() Bool)
(declare-fun p24() Bool)
(declare-fun p36() Bool)
(declare-fun p5() Bool)
(declare-fun p14() Bool)
(declare-fun p37() Bool)
(declare-fun p11() Bool)
(declare-fun p3() Bool)
(declare-fun p6() Bool)
(declare-fun p42() Bool)
(declare-fun p43() Bool)
(declare-fun p25() Bool)
(declare-fun p23() Bool)
(declare-fun p27() Bool)
(declare-fun p39() Bool)
(declare-fun p4() Bool)
(declare-fun p22() Bool)
(declare-fun p9() Bool)
(declare-fun p29() Bool)
(declare-fun p21() Bool)
(declare-fun p8() Bool)
(declare-fun p44() Bool)
(declare-fun p19() Bool)
(declare-fun p33() Bool)
(declare-fun p30() Bool)
(declare-fun p2() Bool)
(declare-fun p17() Bool)
(declare-fun p10() Bool)
(declare-fun p12() Bool)
(declare-fun p20() Bool)
(declare-fun p46() Bool)
(declare-fun p40() Bool)
(declare-fun p47() Bool)
(declare-fun p16() Bool)
(declare-fun p49() Bool)
(declare-fun p13() Bool)
(declare-fun p18() Bool)
(declare-fun p35() Bool)
(declare-fun p34() Bool)
(declare-fun p0() Bool)
(assert
(and (or (not p32) p48 (not p41)) (or p15 p45 (not p26)) (or p38 (not p31) p38) (or (not p1) (not p7) (not p28)) (or (not p24) (not p36) p5) (or (not p14) (not p41) (not p37)) (or (not p11) (not p3) p6) (or p42 p43 (not p45)) (or (not p6) p36 p25) (or (not p23) (not p27) p39) (or (not p14) p4 p43) (or (not p22) p24 (not p42)) (or (not p9) (not p29) (not p48)) (or p21 p45 p14) (or (not p42) p48 (not p22)) (or (not p8) p22 (not p37)) (or p42 (not p5) p44) (or p24 (not p38) (not p19)) (or p31 (not p38) (not p33)) (or (not p48) (not p45) (not p29)) (or p1 (not p26) p28) (or (not p30) (not p27) (not p2)) (or (not p22) p48 (not p1)) (or p25 (not p27) p4) (or (not p17) (not p32) p24) (or p37 p45 (not p45)) (or (not p21) (not p6) (not p10)) (or (not p12) (not p20) p8) (or p42 p46 p39) (or p40 p7 (not p39)) (or (not p4) p15 p3) (or (not p38) p37 (not p19)) (or (not p47) (not p45) (not p16)) (or (not p37) (not p5) p25) (or p49 p11 p39) (or (not p7) p39 (not p46)) (or p6 p23 (not p37)) (or p13 p25 (not p30)) (or p16 (not p40) (not p10)) (or p43 p11 (not p27)) (or p9 p39 (not p48)) (or p16 (not p18) (not p19)) (or (not p32) p42 (not p35)) (or (not p18) p35 p40) (or (not p45) p16 p22) (or (not p16) p11 (not p42)) (or (not p49) p34 (not p22)) (or p39 p19 (not p49)) (or (not p4) (not p37) p49) (or p29 p49 (not p24)) (or (not p42) (not p1) (not p31)) (or (not p31) (not p47) (not p12)) (or p10 p25 (not p19)) (or (not p13) (not p22) p24) (or (not p2) p36 (not p5)) (or (not p16) p20 (not p49)) (or p9 p12 (not p18)) (or p38 (not p11) p13) (or p37 p40 (not p27)) (or (not p12) p3 p20) (or p6 p29 (not p46)) (or p24 (not p46) p32) (or p39 p26 p48) (or p44 (not p47) p4) (or p11 p37 (not p2)) (or p7 p1 p26) (or (not p13) p46 p43) (or p38 (not p25) p7) (or (not p10) p5 p39) (or (not p0) (not p48) (not p28)) (or (not p23) (not p48) p5) (or (not p33) p39 p36) (or (not p41) (not p9) p44) (or p11 p23 (not p46)) (or (not p47) (not p45) p17) (or (not p21) p17 (not p34)) (or p14 (not p32) p23) (or p42 (not p43) (not p9)) (or p28 (not p11) (not p38)) (or (not p34) p31 p32) (or p10 (not p25) (not p5)) (or (not p29) (not p21) p14) (or p14 (not p45) (not p4)) (or (not p6) (not p44) (not p26)) (or (not p13) p8 p49) (or (not p24) p37 (not p17)) (or (not p45) p12 (not p38)) (or (not p29) p29 p39) (or p38 (not p35) p47) (or p7 p9 p13) (or (not p24) p23 p41) (or p10 (not p19) (not p4)) (or p40 p22 (not p12)) (or p6 p23 (not p34)) (or p42 p17 (not p22)) (or p1 p4 (not p13)) (or (not p37) p32 p9) (or (not p35) p44 (not p28)) (or (not p16) p33 (not p44)) (or (not p13) p7 (not p42)) (or p11 (not p35) (not p43)) (or p30 p26 p13) (or p48 p12 p49) (or p1 p38 (not p20)) (or p20 p40 p5) (or p10 (not p25) (not p29)) (or p43 p39 (not p45)) (or p8 (not p4) (not p3)) (or p11 (not p18) p33) (or (not p25) (not p6) p17) (or (not p7) p27 (not p29)) (or p14 p37 p45) (or (not p36) p41 (not p33)) (or (not p20) p5 (not p5)) (or (not p2) (not p38) p3) (or (not p32) p48 (not p46)) (or p34 p15 p44) (or (not p32) p1 (not p49)) (or (not p3) (not p2) p13) (or (not p1) (not p32) p35) (or (not p39) p18 p12) (or (not p10) (not p12) (not p40)) (or p36 (not p7) p31) (or (not p1) (not p36) (not p34)) (or (not p26) p28 (not p37)) (or (not p18) p36 p23) (or (not p12) (not p39) p46) (or p42 p29 (not p16)) (or (not p38) p27 p14) (or p10 (not p1) (not p41)) (or p41 (not p6) p19) (or p14 p25 p18) (or (not p26) (not p14) p45) (or (not p27) (not p34) (not p12)) (or (not p7) (not p32) p1) (or p36 p33 (not p34)) (or (not p19) (not p20) (not p46)) (or (not p34) (not p48) p34) (or (not p14) p25 (not p44)) (or p19 p24 p2) (or (not p35) (not p31) p48) (or p39 (not p8) (not p33)) (or (not p7) (not p4) (not p4)) (or (not p38) (not p28) (not p35)) (or p46 (not p1) (not p36)) (or (not p48) (not p14) p11) (or (not p14) (not p49) p40) (or p13 (not p39) (not p32)) (or (not p0) (not p42) (not p48)) (or (not p34) p20 (not p10)) (or p42 p40 p34) (or p38 p46 p18) (or (not p14) (not p25) p26) (or (not p5) p29 p3) (or p22 (not p6) (not p26)) (or p22 p26 (not p34)) (or (not p34) p43 (not p15)) (or (not p32) (not p19) (not p6)) (or (not p18) (not p46) (not p26)) (or (not p2) p7 p35) (or p34 p21 p39) (or (not p18) (not p44) p47) (or p41 p46 p31) (or p25 p1 p22) (or p10 (not p21) (not p9)) (or (not p33) (not p40) p1) (or (not p26) (not p41) p8) (or (not p13) p3 p38) (or p26 (not p15) (not p37)) (or p6 p7 (not p17)) (or p4 p41 (not p37)) (or p34 p27 p40) (or p19 (not p0) p42) (or p1 p24 p37) (or (not p21) p38 p36) (or p16 p4 p15) (or (not p4) p7 p7) (or p21 (not p11) p39) (or p48 p11 p34) (or (not p49) (not p6) (not p37)) (or (not p36) p21 (not p48)) (or p44 p34 (not p46)) (or (not p25) p4 (not p5)) (or p39 (not p24) p43) (or (not p14) p36 p26) (or (not p45) (not p33) p42) (or (not p9) p38 p2) (or p13 (not p19) p13) (or (not p17) p39 p46) (or p48 p12 (not p29)) (or (not p34) p35 p36) (or p38 p1 p5) (or p17 (not p11) p11) (or (not p27) (not p20) p31) (or (not p40) p11 (not p22)) (or p12 (not p16) (not p24)) (or p22 p47 p5) (or p10 p42 p15) (or p14 (not p13) p12) (or (not p29) (not p3) p23) (or (not p14) (not p6) (not p11)) (or (not p1) p7 p33) (or (not p10) (not p2) p13) (or p19 p17 p33) (or p2 (not p2) p19) (or (not p12) p2 (not p19)) (or (not p18) (not p1) p12) (or (not p21) p42 p31) (or (not p7) (not p33) p19) (or (not p47) p42 p28))
)
(check-sat)
(get-model)
